DATASET = "thpack4";
INSTANCE = "082";

WIDTH = 233;
HEIGHT = 220;
LENGTH = 587;

NO_OF_SHAPES = 10;
size = [|
  65,51,50 |
  113,78,28 |
  120,35,32 |
  71,53,20 |
  94,70,64 |
  64,33,32 |
  71,35,21 |
  85,59,49 |
  108,62,53 |
  116,56,25 |
|];

verticality = [|
  1,1,1 |
  0,0,1 |
  0,1,1 |
  0,0,1 |
  1,1,1 |
  0,1,1 |
  0,1,1 |
  1,1,1 |
  0,1,1 |
  0,0,1 |
|];

box_count = [
  17,
  14,
  14,
  13,
  16,
  14,
  17,
  18,
  14,
  16,
];
